w := 100e-9

SetGridsize(20, 200, 4)
SetCellsize(5e-9, 5e-9, 5e-9)

DefRegion(1, Cuboid(w, 600e-9, 20e-9))

Ms := 800e3
ExchangeE := 13e-12
AlphaPerm := 0.01

Msat.SetRegion(1, Ms)
m.SetRegion(1, uniform(0, 1, 0))
Aex.SetRegion(1, ExchangeE)
alpha.SetRegion(1, 0.01)
Ku1.SetRegion(1, 0)

Msat.SetRegion(0, 0)
m.SetRegion(0, uniform(0, 0, 0))
Aex.SetRegion(0, 0)

relax()
