OutputFormat = OVF1_TEXT
nx := 32
ny := 32
nz := 2
CellSize := 5e-9
Translate := 5e-9
GridSize := 10e-9
SetGridsize(nx, ny, nz)
SetCellsize(CellSize, CellSize, CellSize)
Ms := 1400e3
ExchangeE := 30e-12
Alph := 0.015
DefRegion(1, Cuboid(GridSize, GridSize, GridSize).transl(Translate*1, Translate*1, 0))
DefRegion(2, Cuboid(GridSize, GridSize, GridSize).transl(Translate*1, Translate*3, 0))
DefRegion(3, Cuboid(GridSize, GridSize, GridSize).transl(Translate*1, Translate*5, 0))
DefRegion(4, Cuboid(GridSize, GridSize, GridSize).transl(Translate*1, Translate*7, 0))
DefRegion(5, Cuboid(GridSize, GridSize, GridSize).transl(Translate*1, Translate*9, 0))
DefRegion(6, Cuboid(GridSize, GridSize, GridSize).transl(Translate*1, Translate*11, 0))
DefRegion(7, Cuboid(GridSize, GridSize, GridSize).transl(Translate*1, Translate*13, 0))
DefRegion(8, Cuboid(GridSize, GridSize, GridSize).transl(Translate*1, Translate*15, 0))
DefRegion(9, Cuboid(GridSize, GridSize, GridSize).transl(Translate*3, Translate*1, 0))
DefRegion(10, Cuboid(GridSize, GridSize, GridSize).transl(Translate*3, Translate*3, 0))
DefRegion(11, Cuboid(GridSize, GridSize, GridSize).transl(Translate*3, Translate*5, 0))
DefRegion(12, Cuboid(GridSize, GridSize, GridSize).transl(Translate*3, Translate*7, 0))
DefRegion(13, Cuboid(GridSize, GridSize, GridSize).transl(Translate*3, Translate*9, 0))
DefRegion(14, Cuboid(GridSize, GridSize, GridSize).transl(Translate*3, Translate*11, 0))
DefRegion(15, Cuboid(GridSize, GridSize, GridSize).transl(Translate*3, Translate*13, 0))
DefRegion(16, Cuboid(GridSize, GridSize, GridSize).transl(Translate*3, Translate*15, 0))
DefRegion(17, Cuboid(GridSize, GridSize, GridSize).transl(Translate*5, Translate*1, 0))
DefRegion(18, Cuboid(GridSize, GridSize, GridSize).transl(Translate*5, Translate*3, 0))
DefRegion(19, Cuboid(GridSize, GridSize, GridSize).transl(Translate*5, Translate*5, 0))
DefRegion(20, Cuboid(GridSize, GridSize, GridSize).transl(Translate*5, Translate*7, 0))
DefRegion(21, Cuboid(GridSize, GridSize, GridSize).transl(Translate*5, Translate*9, 0))
DefRegion(22, Cuboid(GridSize, GridSize, GridSize).transl(Translate*5, Translate*11, 0))
DefRegion(23, Cuboid(GridSize, GridSize, GridSize).transl(Translate*5, Translate*13, 0))
DefRegion(24, Cuboid(GridSize, GridSize, GridSize).transl(Translate*5, Translate*15, 0))
DefRegion(25, Cuboid(GridSize, GridSize, GridSize).transl(Translate*7, Translate*1, 0))
DefRegion(26, Cuboid(GridSize, GridSize, GridSize).transl(Translate*7, Translate*3, 0))
DefRegion(27, Cuboid(GridSize, GridSize, GridSize).transl(Translate*7, Translate*5, 0))
DefRegion(28, Cuboid(GridSize, GridSize, GridSize).transl(Translate*7, Translate*7, 0))
DefRegion(29, Cuboid(GridSize, GridSize, GridSize).transl(Translate*7, Translate*9, 0))
DefRegion(30, Cuboid(GridSize, GridSize, GridSize).transl(Translate*7, Translate*11, 0))
DefRegion(31, Cuboid(GridSize, GridSize, GridSize).transl(Translate*7, Translate*13, 0))
DefRegion(32, Cuboid(GridSize, GridSize, GridSize).transl(Translate*7, Translate*15, 0))
DefRegion(33, Cuboid(GridSize, GridSize, GridSize).transl(Translate*9, Translate*1, 0))
DefRegion(34, Cuboid(GridSize, GridSize, GridSize).transl(Translate*9, Translate*3, 0))
DefRegion(35, Cuboid(GridSize, GridSize, GridSize).transl(Translate*9, Translate*5, 0))
DefRegion(36, Cuboid(GridSize, GridSize, GridSize).transl(Translate*9, Translate*7, 0))
DefRegion(37, Cuboid(GridSize, GridSize, GridSize).transl(Translate*9, Translate*9, 0))
DefRegion(38, Cuboid(GridSize, GridSize, GridSize).transl(Translate*9, Translate*11, 0))
DefRegion(39, Cuboid(GridSize, GridSize, GridSize).transl(Translate*9, Translate*13, 0))
DefRegion(40, Cuboid(GridSize, GridSize, GridSize).transl(Translate*9, Translate*15, 0))
DefRegion(41, Cuboid(GridSize, GridSize, GridSize).transl(Translate*11, Translate*1, 0))
DefRegion(42, Cuboid(GridSize, GridSize, GridSize).transl(Translate*11, Translate*3, 0))
DefRegion(43, Cuboid(GridSize, GridSize, GridSize).transl(Translate*11, Translate*5, 0))
DefRegion(44, Cuboid(GridSize, GridSize, GridSize).transl(Translate*11, Translate*7, 0))
DefRegion(45, Cuboid(GridSize, GridSize, GridSize).transl(Translate*11, Translate*9, 0))
DefRegion(46, Cuboid(GridSize, GridSize, GridSize).transl(Translate*11, Translate*11, 0))
DefRegion(47, Cuboid(GridSize, GridSize, GridSize).transl(Translate*11, Translate*13, 0))
DefRegion(48, Cuboid(GridSize, GridSize, GridSize).transl(Translate*11, Translate*15, 0))
DefRegion(49, Cuboid(GridSize, GridSize, GridSize).transl(Translate*13, Translate*1, 0))
DefRegion(50, Cuboid(GridSize, GridSize, GridSize).transl(Translate*13, Translate*3, 0))
DefRegion(51, Cuboid(GridSize, GridSize, GridSize).transl(Translate*13, Translate*5, 0))
DefRegion(52, Cuboid(GridSize, GridSize, GridSize).transl(Translate*13, Translate*7, 0))
DefRegion(53, Cuboid(GridSize, GridSize, GridSize).transl(Translate*13, Translate*9, 0))
DefRegion(54, Cuboid(GridSize, GridSize, GridSize).transl(Translate*13, Translate*11, 0))
DefRegion(55, Cuboid(GridSize, GridSize, GridSize).transl(Translate*13, Translate*13, 0))
DefRegion(56, Cuboid(GridSize, GridSize, GridSize).transl(Translate*13, Translate*15, 0))
DefRegion(57, Cuboid(GridSize, GridSize, GridSize).transl(Translate*15, Translate*1, 0))
DefRegion(58, Cuboid(GridSize, GridSize, GridSize).transl(Translate*15, Translate*3, 0))
DefRegion(59, Cuboid(GridSize, GridSize, GridSize).transl(Translate*15, Translate*5, 0))
DefRegion(60, Cuboid(GridSize, GridSize, GridSize).transl(Translate*15, Translate*7, 0))
DefRegion(61, Cuboid(GridSize, GridSize, GridSize).transl(Translate*15, Translate*9, 0))
DefRegion(62, Cuboid(GridSize, GridSize, GridSize).transl(Translate*15, Translate*11, 0))
DefRegion(63, Cuboid(GridSize, GridSize, GridSize).transl(Translate*15, Translate*13, 0))
DefRegion(64, Cuboid(GridSize, GridSize, GridSize).transl(Translate*15, Translate*15, 0))
DefRegion(65, Cuboid(GridSize, GridSize, GridSize).transl(-Translate*1, Translate*1, 0))
DefRegion(66, Cuboid(GridSize, GridSize, GridSize).transl(-Translate*1, Translate*3, 0))
DefRegion(67, Cuboid(GridSize, GridSize, GridSize).transl(-Translate*1, Translate*5, 0))
DefRegion(68, Cuboid(GridSize, GridSize, GridSize).transl(-Translate*1, Translate*7, 0))
DefRegion(69, Cuboid(GridSize, GridSize, GridSize).transl(-Translate*1, Translate*9, 0))
DefRegion(70, Cuboid(GridSize, GridSize, GridSize).transl(-Translate*1, Translate*11, 0))
DefRegion(71, Cuboid(GridSize, GridSize, GridSize).transl(-Translate*1, Translate*13, 0))
DefRegion(72, Cuboid(GridSize, GridSize, GridSize).transl(-Translate*1, Translate*15, 0))
DefRegion(73, Cuboid(GridSize, GridSize, GridSize).transl(-Translate*3, Translate*1, 0))
DefRegion(74, Cuboid(GridSize, GridSize, GridSize).transl(-Translate*3, Translate*3, 0))
DefRegion(75, Cuboid(GridSize, GridSize, GridSize).transl(-Translate*3, Translate*5, 0))
DefRegion(76, Cuboid(GridSize, GridSize, GridSize).transl(-Translate*3, Translate*7, 0))
DefRegion(77, Cuboid(GridSize, GridSize, GridSize).transl(-Translate*3, Translate*9, 0))
DefRegion(78, Cuboid(GridSize, GridSize, GridSize).transl(-Translate*3, Translate*11, 0))
DefRegion(79, Cuboid(GridSize, GridSize, GridSize).transl(-Translate*3, Translate*13, 0))
DefRegion(80, Cuboid(GridSize, GridSize, GridSize).transl(-Translate*3, Translate*15, 0))
DefRegion(81, Cuboid(GridSize, GridSize, GridSize).transl(-Translate*5, Translate*1, 0))
DefRegion(82, Cuboid(GridSize, GridSize, GridSize).transl(-Translate*5, Translate*3, 0))
DefRegion(83, Cuboid(GridSize, GridSize, GridSize).transl(-Translate*5, Translate*5, 0))
DefRegion(84, Cuboid(GridSize, GridSize, GridSize).transl(-Translate*5, Translate*7, 0))
DefRegion(85, Cuboid(GridSize, GridSize, GridSize).transl(-Translate*5, Translate*9, 0))
DefRegion(86, Cuboid(GridSize, GridSize, GridSize).transl(-Translate*5, Translate*11, 0))
DefRegion(87, Cuboid(GridSize, GridSize, GridSize).transl(-Translate*5, Translate*13, 0))
DefRegion(88, Cuboid(GridSize, GridSize, GridSize).transl(-Translate*5, Translate*15, 0))
DefRegion(89, Cuboid(GridSize, GridSize, GridSize).transl(-Translate*7, Translate*1, 0))
DefRegion(90, Cuboid(GridSize, GridSize, GridSize).transl(-Translate*7, Translate*3, 0))
DefRegion(91, Cuboid(GridSize, GridSize, GridSize).transl(-Translate*7, Translate*5, 0))
DefRegion(92, Cuboid(GridSize, GridSize, GridSize).transl(-Translate*7, Translate*7, 0))
DefRegion(93, Cuboid(GridSize, GridSize, GridSize).transl(-Translate*7, Translate*9, 0))
DefRegion(94, Cuboid(GridSize, GridSize, GridSize).transl(-Translate*7, Translate*11, 0))
DefRegion(95, Cuboid(GridSize, GridSize, GridSize).transl(-Translate*7, Translate*13, 0))
DefRegion(96, Cuboid(GridSize, GridSize, GridSize).transl(-Translate*7, Translate*15, 0))
DefRegion(97, Cuboid(GridSize, GridSize, GridSize).transl(-Translate*9, Translate*1, 0))
DefRegion(98, Cuboid(GridSize, GridSize, GridSize).transl(-Translate*9, Translate*3, 0))
DefRegion(99, Cuboid(GridSize, GridSize, GridSize).transl(-Translate*9, Translate*5, 0))
DefRegion(100, Cuboid(GridSize, GridSize, GridSize).transl(-Translate*9, Translate*7, 0))
DefRegion(101, Cuboid(GridSize, GridSize, GridSize).transl(-Translate*9, Translate*9, 0))
DefRegion(102, Cuboid(GridSize, GridSize, GridSize).transl(-Translate*9, Translate*11, 0))
DefRegion(103, Cuboid(GridSize, GridSize, GridSize).transl(-Translate*9, Translate*13, 0))
DefRegion(104, Cuboid(GridSize, GridSize, GridSize).transl(-Translate*9, Translate*15, 0))
DefRegion(105, Cuboid(GridSize, GridSize, GridSize).transl(-Translate*11, Translate*1, 0))
DefRegion(106, Cuboid(GridSize, GridSize, GridSize).transl(-Translate*11, Translate*3, 0))
DefRegion(107, Cuboid(GridSize, GridSize, GridSize).transl(-Translate*11, Translate*5, 0))
DefRegion(108, Cuboid(GridSize, GridSize, GridSize).transl(-Translate*11, Translate*7, 0))
DefRegion(109, Cuboid(GridSize, GridSize, GridSize).transl(-Translate*11, Translate*9, 0))
DefRegion(110, Cuboid(GridSize, GridSize, GridSize).transl(-Translate*11, Translate*11, 0))
DefRegion(111, Cuboid(GridSize, GridSize, GridSize).transl(-Translate*11, Translate*13, 0))
DefRegion(112, Cuboid(GridSize, GridSize, GridSize).transl(-Translate*11, Translate*15, 0))
DefRegion(113, Cuboid(GridSize, GridSize, GridSize).transl(-Translate*13, Translate*1, 0))
DefRegion(114, Cuboid(GridSize, GridSize, GridSize).transl(-Translate*13, Translate*3, 0))
DefRegion(115, Cuboid(GridSize, GridSize, GridSize).transl(-Translate*13, Translate*5, 0))
DefRegion(116, Cuboid(GridSize, GridSize, GridSize).transl(-Translate*13, Translate*7, 0))
DefRegion(117, Cuboid(GridSize, GridSize, GridSize).transl(-Translate*13, Translate*9, 0))
DefRegion(118, Cuboid(GridSize, GridSize, GridSize).transl(-Translate*13, Translate*11, 0))
DefRegion(119, Cuboid(GridSize, GridSize, GridSize).transl(-Translate*13, Translate*13, 0))
DefRegion(120, Cuboid(GridSize, GridSize, GridSize).transl(-Translate*13, Translate*15, 0))
DefRegion(121, Cuboid(GridSize, GridSize, GridSize).transl(-Translate*15, Translate*1, 0))
DefRegion(122, Cuboid(GridSize, GridSize, GridSize).transl(-Translate*15, Translate*3, 0))
DefRegion(123, Cuboid(GridSize, GridSize, GridSize).transl(-Translate*15, Translate*5, 0))
DefRegion(124, Cuboid(GridSize, GridSize, GridSize).transl(-Translate*15, Translate*7, 0))
DefRegion(125, Cuboid(GridSize, GridSize, GridSize).transl(-Translate*15, Translate*9, 0))
DefRegion(126, Cuboid(GridSize, GridSize, GridSize).transl(-Translate*15, Translate*11, 0))
DefRegion(127, Cuboid(GridSize, GridSize, GridSize).transl(-Translate*15, Translate*13, 0))
DefRegion(128, Cuboid(GridSize, GridSize, GridSize).transl(-Translate*15, Translate*15, 0))
DefRegion(129, Cuboid(GridSize, GridSize, GridSize).transl(Translate*1, -Translate*1, 0))
DefRegion(130, Cuboid(GridSize, GridSize, GridSize).transl(Translate*1, -Translate*3, 0))
DefRegion(131, Cuboid(GridSize, GridSize, GridSize).transl(Translate*1, -Translate*5, 0))
DefRegion(132, Cuboid(GridSize, GridSize, GridSize).transl(Translate*1, -Translate*7, 0))
DefRegion(133, Cuboid(GridSize, GridSize, GridSize).transl(Translate*1, -Translate*9, 0))
DefRegion(134, Cuboid(GridSize, GridSize, GridSize).transl(Translate*1, -Translate*11, 0))
DefRegion(135, Cuboid(GridSize, GridSize, GridSize).transl(Translate*1, -Translate*13, 0))
DefRegion(136, Cuboid(GridSize, GridSize, GridSize).transl(Translate*1, -Translate*15, 0))
DefRegion(137, Cuboid(GridSize, GridSize, GridSize).transl(Translate*3, -Translate*1, 0))
DefRegion(138, Cuboid(GridSize, GridSize, GridSize).transl(Translate*3, -Translate*3, 0))
DefRegion(139, Cuboid(GridSize, GridSize, GridSize).transl(Translate*3, -Translate*5, 0))
DefRegion(140, Cuboid(GridSize, GridSize, GridSize).transl(Translate*3, -Translate*7, 0))
DefRegion(141, Cuboid(GridSize, GridSize, GridSize).transl(Translate*3, -Translate*9, 0))
DefRegion(142, Cuboid(GridSize, GridSize, GridSize).transl(Translate*3, -Translate*11, 0))
DefRegion(143, Cuboid(GridSize, GridSize, GridSize).transl(Translate*3, -Translate*13, 0))
DefRegion(144, Cuboid(GridSize, GridSize, GridSize).transl(Translate*3, -Translate*15, 0))
DefRegion(145, Cuboid(GridSize, GridSize, GridSize).transl(Translate*5, -Translate*1, 0))
DefRegion(146, Cuboid(GridSize, GridSize, GridSize).transl(Translate*5, -Translate*3, 0))
DefRegion(147, Cuboid(GridSize, GridSize, GridSize).transl(Translate*5, -Translate*5, 0))
DefRegion(148, Cuboid(GridSize, GridSize, GridSize).transl(Translate*5, -Translate*7, 0))
DefRegion(149, Cuboid(GridSize, GridSize, GridSize).transl(Translate*5, -Translate*9, 0))
DefRegion(150, Cuboid(GridSize, GridSize, GridSize).transl(Translate*5, -Translate*11, 0))
DefRegion(151, Cuboid(GridSize, GridSize, GridSize).transl(Translate*5, -Translate*13, 0))
DefRegion(152, Cuboid(GridSize, GridSize, GridSize).transl(Translate*5, -Translate*15, 0))
DefRegion(153, Cuboid(GridSize, GridSize, GridSize).transl(Translate*7, -Translate*1, 0))
DefRegion(154, Cuboid(GridSize, GridSize, GridSize).transl(Translate*7, -Translate*3, 0))
DefRegion(155, Cuboid(GridSize, GridSize, GridSize).transl(Translate*7, -Translate*5, 0))
DefRegion(156, Cuboid(GridSize, GridSize, GridSize).transl(Translate*7, -Translate*7, 0))
DefRegion(157, Cuboid(GridSize, GridSize, GridSize).transl(Translate*7, -Translate*9, 0))
DefRegion(158, Cuboid(GridSize, GridSize, GridSize).transl(Translate*7, -Translate*11, 0))
DefRegion(159, Cuboid(GridSize, GridSize, GridSize).transl(Translate*7, -Translate*13, 0))
DefRegion(160, Cuboid(GridSize, GridSize, GridSize).transl(Translate*7, -Translate*15, 0))
DefRegion(161, Cuboid(GridSize, GridSize, GridSize).transl(Translate*9, -Translate*1, 0))
DefRegion(162, Cuboid(GridSize, GridSize, GridSize).transl(Translate*9, -Translate*3, 0))
DefRegion(163, Cuboid(GridSize, GridSize, GridSize).transl(Translate*9, -Translate*5, 0))
DefRegion(164, Cuboid(GridSize, GridSize, GridSize).transl(Translate*9, -Translate*7, 0))
DefRegion(165, Cuboid(GridSize, GridSize, GridSize).transl(Translate*9, -Translate*9, 0))
DefRegion(166, Cuboid(GridSize, GridSize, GridSize).transl(Translate*9, -Translate*11, 0))
DefRegion(167, Cuboid(GridSize, GridSize, GridSize).transl(Translate*9, -Translate*13, 0))
DefRegion(168, Cuboid(GridSize, GridSize, GridSize).transl(Translate*9, -Translate*15, 0))
DefRegion(169, Cuboid(GridSize, GridSize, GridSize).transl(Translate*11, -Translate*1, 0))
DefRegion(170, Cuboid(GridSize, GridSize, GridSize).transl(Translate*11, -Translate*3, 0))
DefRegion(171, Cuboid(GridSize, GridSize, GridSize).transl(Translate*11, -Translate*5, 0))
DefRegion(172, Cuboid(GridSize, GridSize, GridSize).transl(Translate*11, -Translate*7, 0))
DefRegion(173, Cuboid(GridSize, GridSize, GridSize).transl(Translate*11, -Translate*9, 0))
DefRegion(174, Cuboid(GridSize, GridSize, GridSize).transl(Translate*11, -Translate*11, 0))
DefRegion(175, Cuboid(GridSize, GridSize, GridSize).transl(Translate*11, -Translate*13, 0))
DefRegion(176, Cuboid(GridSize, GridSize, GridSize).transl(Translate*11, -Translate*15, 0))
DefRegion(177, Cuboid(GridSize, GridSize, GridSize).transl(Translate*13, -Translate*1, 0))
DefRegion(178, Cuboid(GridSize, GridSize, GridSize).transl(Translate*13, -Translate*3, 0))
DefRegion(179, Cuboid(GridSize, GridSize, GridSize).transl(Translate*13, -Translate*5, 0))
DefRegion(180, Cuboid(GridSize, GridSize, GridSize).transl(Translate*13, -Translate*7, 0))
DefRegion(181, Cuboid(GridSize, GridSize, GridSize).transl(Translate*13, -Translate*9, 0))
DefRegion(182, Cuboid(GridSize, GridSize, GridSize).transl(Translate*13, -Translate*11, 0))
DefRegion(183, Cuboid(GridSize, GridSize, GridSize).transl(Translate*13, -Translate*13, 0))
DefRegion(184, Cuboid(GridSize, GridSize, GridSize).transl(Translate*13, -Translate*15, 0))
DefRegion(185, Cuboid(GridSize, GridSize, GridSize).transl(Translate*15, -Translate*1, 0))
DefRegion(186, Cuboid(GridSize, GridSize, GridSize).transl(Translate*15, -Translate*3, 0))
DefRegion(187, Cuboid(GridSize, GridSize, GridSize).transl(Translate*15, -Translate*5, 0))
DefRegion(188, Cuboid(GridSize, GridSize, GridSize).transl(Translate*15, -Translate*7, 0))
DefRegion(189, Cuboid(GridSize, GridSize, GridSize).transl(Translate*15, -Translate*9, 0))
DefRegion(190, Cuboid(GridSize, GridSize, GridSize).transl(Translate*15, -Translate*11, 0))
DefRegion(191, Cuboid(GridSize, GridSize, GridSize).transl(Translate*15, -Translate*13, 0))
DefRegion(192, Cuboid(GridSize, GridSize, GridSize).transl(Translate*15, -Translate*15, 0))
DefRegion(193, Cuboid(GridSize, GridSize, GridSize).transl(-Translate*1, -Translate*1, 0))
DefRegion(194, Cuboid(GridSize, GridSize, GridSize).transl(-Translate*1, -Translate*3, 0))
DefRegion(195, Cuboid(GridSize, GridSize, GridSize).transl(-Translate*1, -Translate*5, 0))
DefRegion(196, Cuboid(GridSize, GridSize, GridSize).transl(-Translate*1, -Translate*7, 0))
DefRegion(197, Cuboid(GridSize, GridSize, GridSize).transl(-Translate*1, -Translate*9, 0))
DefRegion(198, Cuboid(GridSize, GridSize, GridSize).transl(-Translate*1, -Translate*11, 0))
DefRegion(199, Cuboid(GridSize, GridSize, GridSize).transl(-Translate*1, -Translate*13, 0))
DefRegion(200, Cuboid(GridSize, GridSize, GridSize).transl(-Translate*1, -Translate*15, 0))
DefRegion(201, Cuboid(GridSize, GridSize, GridSize).transl(-Translate*3, -Translate*1, 0))
DefRegion(202, Cuboid(GridSize, GridSize, GridSize).transl(-Translate*3, -Translate*3, 0))
DefRegion(203, Cuboid(GridSize, GridSize, GridSize).transl(-Translate*3, -Translate*5, 0))
DefRegion(204, Cuboid(GridSize, GridSize, GridSize).transl(-Translate*3, -Translate*7, 0))
DefRegion(205, Cuboid(GridSize, GridSize, GridSize).transl(-Translate*3, -Translate*9, 0))
DefRegion(206, Cuboid(GridSize, GridSize, GridSize).transl(-Translate*3, -Translate*11, 0))
DefRegion(207, Cuboid(GridSize, GridSize, GridSize).transl(-Translate*3, -Translate*13, 0))
DefRegion(208, Cuboid(GridSize, GridSize, GridSize).transl(-Translate*3, -Translate*15, 0))
DefRegion(209, Cuboid(GridSize, GridSize, GridSize).transl(-Translate*5, -Translate*1, 0))
DefRegion(210, Cuboid(GridSize, GridSize, GridSize).transl(-Translate*5, -Translate*3, 0))
DefRegion(211, Cuboid(GridSize, GridSize, GridSize).transl(-Translate*5, -Translate*5, 0))
DefRegion(212, Cuboid(GridSize, GridSize, GridSize).transl(-Translate*5, -Translate*7, 0))
DefRegion(213, Cuboid(GridSize, GridSize, GridSize).transl(-Translate*5, -Translate*9, 0))
DefRegion(214, Cuboid(GridSize, GridSize, GridSize).transl(-Translate*5, -Translate*11, 0))
DefRegion(215, Cuboid(GridSize, GridSize, GridSize).transl(-Translate*5, -Translate*13, 0))
DefRegion(216, Cuboid(GridSize, GridSize, GridSize).transl(-Translate*5, -Translate*15, 0))
DefRegion(217, Cuboid(GridSize, GridSize, GridSize).transl(-Translate*7, -Translate*1, 0))
DefRegion(218, Cuboid(GridSize, GridSize, GridSize).transl(-Translate*7, -Translate*3, 0))
DefRegion(219, Cuboid(GridSize, GridSize, GridSize).transl(-Translate*7, -Translate*5, 0))
DefRegion(220, Cuboid(GridSize, GridSize, GridSize).transl(-Translate*7, -Translate*7, 0))
DefRegion(221, Cuboid(GridSize, GridSize, GridSize).transl(-Translate*7, -Translate*9, 0))
DefRegion(222, Cuboid(GridSize, GridSize, GridSize).transl(-Translate*7, -Translate*11, 0))
DefRegion(223, Cuboid(GridSize, GridSize, GridSize).transl(-Translate*7, -Translate*13, 0))
DefRegion(224, Cuboid(GridSize, GridSize, GridSize).transl(-Translate*7, -Translate*15, 0))
DefRegion(225, Cuboid(GridSize, GridSize, GridSize).transl(-Translate*9, -Translate*1, 0))
DefRegion(226, Cuboid(GridSize, GridSize, GridSize).transl(-Translate*9, -Translate*3, 0))
DefRegion(227, Cuboid(GridSize, GridSize, GridSize).transl(-Translate*9, -Translate*5, 0))
DefRegion(228, Cuboid(GridSize, GridSize, GridSize).transl(-Translate*9, -Translate*7, 0))
DefRegion(229, Cuboid(GridSize, GridSize, GridSize).transl(-Translate*9, -Translate*9, 0))
DefRegion(230, Cuboid(GridSize, GridSize, GridSize).transl(-Translate*9, -Translate*11, 0))
DefRegion(231, Cuboid(GridSize, GridSize, GridSize).transl(-Translate*9, -Translate*13, 0))
DefRegion(232, Cuboid(GridSize, GridSize, GridSize).transl(-Translate*9, -Translate*15, 0))
DefRegion(233, Cuboid(GridSize, GridSize, GridSize).transl(-Translate*11, -Translate*1, 0))
DefRegion(234, Cuboid(GridSize, GridSize, GridSize).transl(-Translate*11, -Translate*3, 0))
DefRegion(235, Cuboid(GridSize, GridSize, GridSize).transl(-Translate*11, -Translate*5, 0))
DefRegion(236, Cuboid(GridSize, GridSize, GridSize).transl(-Translate*11, -Translate*7, 0))
DefRegion(237, Cuboid(GridSize, GridSize, GridSize).transl(-Translate*11, -Translate*9, 0))
DefRegion(238, Cuboid(GridSize, GridSize, GridSize).transl(-Translate*11, -Translate*11, 0))
DefRegion(239, Cuboid(GridSize, GridSize, GridSize).transl(-Translate*11, -Translate*13, 0))
DefRegion(240, Cuboid(GridSize, GridSize, GridSize).transl(-Translate*11, -Translate*15, 0))
DefRegion(241, Cuboid(GridSize, GridSize, GridSize).transl(-Translate*13, -Translate*1, 0))
DefRegion(242, Cuboid(GridSize, GridSize, GridSize).transl(-Translate*13, -Translate*3, 0))
DefRegion(243, Cuboid(GridSize, GridSize, GridSize).transl(-Translate*13, -Translate*5, 0))
DefRegion(244, Cuboid(GridSize, GridSize, GridSize).transl(-Translate*13, -Translate*7, 0))
DefRegion(245, Cuboid(GridSize, GridSize, GridSize).transl(-Translate*13, -Translate*9, 0))
DefRegion(246, Cuboid(GridSize, GridSize, GridSize).transl(-Translate*13, -Translate*11, 0))
DefRegion(247, Cuboid(GridSize, GridSize, GridSize).transl(-Translate*13, -Translate*13, 0))
DefRegion(248, Cuboid(GridSize, GridSize, GridSize).transl(-Translate*13, -Translate*15, 0))
DefRegion(249, Cuboid(GridSize, GridSize, GridSize).transl(-Translate*15, -Translate*1, 0))
DefRegion(250, Cuboid(GridSize, GridSize, GridSize).transl(-Translate*15, -Translate*3, 0))
DefRegion(251, Cuboid(GridSize, GridSize, GridSize).transl(-Translate*15, -Translate*5, 0))
DefRegion(252, Cuboid(GridSize, GridSize, GridSize).transl(-Translate*15, -Translate*7, 0))
DefRegion(253, Cuboid(GridSize, GridSize, GridSize).transl(-Translate*15, -Translate*9, 0))
DefRegion(254, Cuboid(GridSize, GridSize, GridSize).transl(-Translate*15, -Translate*11, 0))
DefRegion(255, Cuboid(GridSize, GridSize, GridSize).transl(-Translate*15, -Translate*13, 0))
DefRegion(256, Cuboid(GridSize, GridSize, GridSize).transl(-Translate*15, -Translate*15, 0))
Msat.SetRegion(0, 0)
m.SetRegion(0, uniform(0, 0, 0))
Aex.SetRegion(0, 0)
Kc1.SetRegion(0, 0)
m.SetRegion(1, uniform(0, 0, 0))
Msat.SetRegion(1, 0)
Aex.SetRegion(1, 0)
Kc1.SetRegion(1, 0)
Msat.SetRegion(2, Ms)
Aex.SetRegion(2, ExchangeE)
Ku1.SetRegion(2, 0)
alpha.SetRegion(2, Alph)
Msat.SetRegion(3, Ms)
Aex.SetRegion(3, ExchangeE)
Ku1.SetRegion(3, 0)
alpha.SetRegion(3, Alph)
Msat.SetRegion(4, Ms)
Aex.SetRegion(4, ExchangeE)
Ku1.SetRegion(4, 0)
alpha.SetRegion(4, Alph)
Msat.SetRegion(5, Ms)
Aex.SetRegion(5, ExchangeE)
Ku1.SetRegion(5, 0)
alpha.SetRegion(5, Alph)
Msat.SetRegion(6, Ms)
Aex.SetRegion(6, ExchangeE)
Ku1.SetRegion(6, 0)
alpha.SetRegion(6, Alph)
Msat.SetRegion(7, Ms)
Aex.SetRegion(7, ExchangeE)
Ku1.SetRegion(7, 0)
alpha.SetRegion(7, Alph)
Msat.SetRegion(8, Ms)
Aex.SetRegion(8, ExchangeE)
Ku1.SetRegion(8, 0)
alpha.SetRegion(8, Alph)
m.SetRegion(9, uniform(0, 0, 0))
Msat.SetRegion(9, 0)
Aex.SetRegion(9, 0)
Kc1.SetRegion(9, 0)
Msat.SetRegion(10, Ms)
Aex.SetRegion(10, ExchangeE)
Ku1.SetRegion(10, 0)
alpha.SetRegion(10, Alph)
Msat.SetRegion(11, Ms)
Aex.SetRegion(11, ExchangeE)
Ku1.SetRegion(11, 0)
alpha.SetRegion(11, Alph)
Msat.SetRegion(12, Ms)
Aex.SetRegion(12, ExchangeE)
Ku1.SetRegion(12, 0)
alpha.SetRegion(12, Alph)
Msat.SetRegion(13, Ms)
Aex.SetRegion(13, ExchangeE)
Ku1.SetRegion(13, 0)
alpha.SetRegion(13, Alph)
Msat.SetRegion(14, Ms)
Aex.SetRegion(14, ExchangeE)
Ku1.SetRegion(14, 0)
alpha.SetRegion(14, Alph)
Msat.SetRegion(15, Ms)
Aex.SetRegion(15, ExchangeE)
Ku1.SetRegion(15, 0)
alpha.SetRegion(15, Alph)
Msat.SetRegion(16, Ms)
Aex.SetRegion(16, ExchangeE)
Ku1.SetRegion(16, 0)
alpha.SetRegion(16, Alph)
m.SetRegion(17, uniform(0, 0, 0))
Msat.SetRegion(17, 0)
Aex.SetRegion(17, 0)
Kc1.SetRegion(17, 0)
Msat.SetRegion(18, Ms)
Aex.SetRegion(18, ExchangeE)
Ku1.SetRegion(18, 0)
alpha.SetRegion(18, Alph)
Msat.SetRegion(19, Ms)
Aex.SetRegion(19, ExchangeE)
Ku1.SetRegion(19, 0)
alpha.SetRegion(19, Alph)
Msat.SetRegion(20, Ms)
Aex.SetRegion(20, ExchangeE)
Ku1.SetRegion(20, 0)
alpha.SetRegion(20, Alph)
Msat.SetRegion(21, Ms)
Aex.SetRegion(21, ExchangeE)
Ku1.SetRegion(21, 0)
alpha.SetRegion(21, Alph)
Msat.SetRegion(22, Ms)
Aex.SetRegion(22, ExchangeE)
Ku1.SetRegion(22, 0)
alpha.SetRegion(22, Alph)
Msat.SetRegion(23, Ms)
Aex.SetRegion(23, ExchangeE)
Ku1.SetRegion(23, 0)
alpha.SetRegion(23, Alph)
Msat.SetRegion(24, Ms)
Aex.SetRegion(24, ExchangeE)
Ku1.SetRegion(24, 0)
alpha.SetRegion(24, Alph)
m.SetRegion(25, uniform(0, 0, 0))
Msat.SetRegion(25, 0)
Aex.SetRegion(25, 0)
Kc1.SetRegion(25, 0)
Msat.SetRegion(26, Ms)
Aex.SetRegion(26, ExchangeE)
Ku1.SetRegion(26, 0)
alpha.SetRegion(26, Alph)
Msat.SetRegion(27, Ms)
Aex.SetRegion(27, ExchangeE)
Ku1.SetRegion(27, 0)
alpha.SetRegion(27, Alph)
Msat.SetRegion(28, Ms)
Aex.SetRegion(28, ExchangeE)
Ku1.SetRegion(28, 0)
alpha.SetRegion(28, Alph)
Msat.SetRegion(29, Ms)
Aex.SetRegion(29, ExchangeE)
Ku1.SetRegion(29, 0)
alpha.SetRegion(29, Alph)
Msat.SetRegion(30, Ms)
Aex.SetRegion(30, ExchangeE)
Ku1.SetRegion(30, 0)
alpha.SetRegion(30, Alph)
Msat.SetRegion(31, Ms)
Aex.SetRegion(31, ExchangeE)
Ku1.SetRegion(31, 0)
alpha.SetRegion(31, Alph)
Msat.SetRegion(32, Ms)
Aex.SetRegion(32, ExchangeE)
Ku1.SetRegion(32, 0)
alpha.SetRegion(32, Alph)
m.SetRegion(33, uniform(0, 0, 0))
Msat.SetRegion(33, 0)
Aex.SetRegion(33, 0)
Kc1.SetRegion(33, 0)
Msat.SetRegion(34, Ms)
Aex.SetRegion(34, ExchangeE)
Ku1.SetRegion(34, 0)
alpha.SetRegion(34, Alph)
Msat.SetRegion(35, Ms)
Aex.SetRegion(35, ExchangeE)
Ku1.SetRegion(35, 0)
alpha.SetRegion(35, Alph)
Msat.SetRegion(36, Ms)
Aex.SetRegion(36, ExchangeE)
Ku1.SetRegion(36, 0)
alpha.SetRegion(36, Alph)
Msat.SetRegion(37, Ms)
Aex.SetRegion(37, ExchangeE)
Ku1.SetRegion(37, 0)
alpha.SetRegion(37, Alph)
Msat.SetRegion(38, Ms)
Aex.SetRegion(38, ExchangeE)
Ku1.SetRegion(38, 0)
alpha.SetRegion(38, Alph)
Msat.SetRegion(39, Ms)
Aex.SetRegion(39, ExchangeE)
Ku1.SetRegion(39, 0)
alpha.SetRegion(39, Alph)
Msat.SetRegion(40, Ms)
Aex.SetRegion(40, ExchangeE)
Ku1.SetRegion(40, 0)
alpha.SetRegion(40, Alph)
m.SetRegion(41, uniform(0, 0, 0))
Msat.SetRegion(41, 0)
Aex.SetRegion(41, 0)
Kc1.SetRegion(41, 0)
Msat.SetRegion(42, Ms)
Aex.SetRegion(42, ExchangeE)
Ku1.SetRegion(42, 0)
alpha.SetRegion(42, Alph)
Msat.SetRegion(43, Ms)
Aex.SetRegion(43, ExchangeE)
Ku1.SetRegion(43, 0)
alpha.SetRegion(43, Alph)
Msat.SetRegion(44, Ms)
Aex.SetRegion(44, ExchangeE)
Ku1.SetRegion(44, 0)
alpha.SetRegion(44, Alph)
Msat.SetRegion(45, Ms)
Aex.SetRegion(45, ExchangeE)
Ku1.SetRegion(45, 0)
alpha.SetRegion(45, Alph)
Msat.SetRegion(46, Ms)
Aex.SetRegion(46, ExchangeE)
Ku1.SetRegion(46, 0)
alpha.SetRegion(46, Alph)
Msat.SetRegion(47, Ms)
Aex.SetRegion(47, ExchangeE)
Ku1.SetRegion(47, 0)
alpha.SetRegion(47, Alph)
Msat.SetRegion(48, Ms)
Aex.SetRegion(48, ExchangeE)
Ku1.SetRegion(48, 0)
alpha.SetRegion(48, Alph)
m.SetRegion(49, uniform(0, 0, 0))
Msat.SetRegion(49, 0)
Aex.SetRegion(49, 0)
Kc1.SetRegion(49, 0)
Msat.SetRegion(50, Ms)
Aex.SetRegion(50, ExchangeE)
Ku1.SetRegion(50, 0)
alpha.SetRegion(50, Alph)
Msat.SetRegion(51, Ms)
Aex.SetRegion(51, ExchangeE)
Ku1.SetRegion(51, 0)
alpha.SetRegion(51, Alph)
Msat.SetRegion(52, Ms)
Aex.SetRegion(52, ExchangeE)
Ku1.SetRegion(52, 0)
alpha.SetRegion(52, Alph)
Msat.SetRegion(53, Ms)
Aex.SetRegion(53, ExchangeE)
Ku1.SetRegion(53, 0)
alpha.SetRegion(53, Alph)
Msat.SetRegion(54, Ms)
Aex.SetRegion(54, ExchangeE)
Ku1.SetRegion(54, 0)
alpha.SetRegion(54, Alph)
Msat.SetRegion(55, Ms)
Aex.SetRegion(55, ExchangeE)
Ku1.SetRegion(55, 0)
alpha.SetRegion(55, Alph)
Msat.SetRegion(56, Ms)
Aex.SetRegion(56, ExchangeE)
Ku1.SetRegion(56, 0)
alpha.SetRegion(56, Alph)
m.SetRegion(57, uniform(0, 0, 0))
Msat.SetRegion(57, 0)
Aex.SetRegion(57, 0)
Kc1.SetRegion(57, 0)
Msat.SetRegion(58, Ms)
Aex.SetRegion(58, ExchangeE)
Ku1.SetRegion(58, 0)
alpha.SetRegion(58, Alph)
Msat.SetRegion(59, Ms)
Aex.SetRegion(59, ExchangeE)
Ku1.SetRegion(59, 0)
alpha.SetRegion(59, Alph)
Msat.SetRegion(60, Ms)
Aex.SetRegion(60, ExchangeE)
Ku1.SetRegion(60, 0)
alpha.SetRegion(60, Alph)
Msat.SetRegion(61, Ms)
Aex.SetRegion(61, ExchangeE)
Ku1.SetRegion(61, 0)
alpha.SetRegion(61, Alph)
Msat.SetRegion(62, Ms)
Aex.SetRegion(62, ExchangeE)
Ku1.SetRegion(62, 0)
alpha.SetRegion(62, Alph)
Msat.SetRegion(63, Ms)
Aex.SetRegion(63, ExchangeE)
Ku1.SetRegion(63, 0)
alpha.SetRegion(63, Alph)
Msat.SetRegion(64, Ms)
Aex.SetRegion(64, ExchangeE)
Ku1.SetRegion(64, 0)
alpha.SetRegion(64, Alph)
m.SetRegion(65, uniform(0, 0, 0))
Msat.SetRegion(65, 0)
Aex.SetRegion(65, 0)
Kc1.SetRegion(65, 0)
Msat.SetRegion(66, Ms)
Aex.SetRegion(66, ExchangeE)
Ku1.SetRegion(66, 0)
alpha.SetRegion(66, Alph)
Msat.SetRegion(67, Ms)
Aex.SetRegion(67, ExchangeE)
Ku1.SetRegion(67, 0)