OutputFormat = OVF1_TEXT
nx := 28
ny := 28
nz := 2
CellSize := 5e-9
Translate := 5e-9
GridSize := 10e-9
SetGridsize(nx, ny, nz)
SetCellsize(CellSize, CellSize, CellSize)
Ms := 1400e3
ExchangeE := 30e-12
Alph := 0.015
DefRegion(1, Cuboid(GridSize, GridSize, GridSize).transl(Translate*1, Translate*1, 0))
DefRegion(2, Cuboid(GridSize, GridSize, GridSize).transl(Translate*1, Translate*3, 0))
DefRegion(3, Cuboid(GridSize, GridSize, GridSize).transl(Translate*1, Translate*5, 0))
DefRegion(4, Cuboid(GridSize, GridSize, GridSize).transl(Translate*1, Translate*7, 0))
DefRegion(5, Cuboid(GridSize, GridSize, GridSize).transl(Translate*1, Translate*9, 0))
DefRegion(6, Cuboid(GridSize, GridSize, GridSize).transl(Translate*1, Translate*11, 0))
DefRegion(7, Cuboid(GridSize, GridSize, GridSize).transl(Translate*1, Translate*13, 0))
DefRegion(8, Cuboid(GridSize, GridSize, GridSize).transl(Translate*3, Translate*1, 0))
DefRegion(9, Cuboid(GridSize, GridSize, GridSize).transl(Translate*3, Translate*3, 0))
DefRegion(10, Cuboid(GridSize, GridSize, GridSize).transl(Translate*3, Translate*5, 0))
DefRegion(11, Cuboid(GridSize, GridSize, GridSize).transl(Translate*3, Translate*7, 0))
DefRegion(12, Cuboid(GridSize, GridSize, GridSize).transl(Translate*3, Translate*9, 0))
DefRegion(13, Cuboid(GridSize, GridSize, GridSize).transl(Translate*3, Translate*11, 0))
DefRegion(14, Cuboid(GridSize, GridSize, GridSize).transl(Translate*3, Translate*13, 0))
DefRegion(15, Cuboid(GridSize, GridSize, GridSize).transl(Translate*5, Translate*1, 0))
DefRegion(16, Cuboid(GridSize, GridSize, GridSize).transl(Translate*5, Translate*3, 0))
DefRegion(17, Cuboid(GridSize, GridSize, GridSize).transl(Translate*5, Translate*5, 0))
DefRegion(18, Cuboid(GridSize, GridSize, GridSize).transl(Translate*5, Translate*7, 0))
DefRegion(19, Cuboid(GridSize, GridSize, GridSize).transl(Translate*5, Translate*9, 0))
DefRegion(20, Cuboid(GridSize, GridSize, GridSize).transl(Translate*5, Translate*11, 0))
DefRegion(21, Cuboid(GridSize, GridSize, GridSize).transl(Translate*5, Translate*13, 0))
DefRegion(22, Cuboid(GridSize, GridSize, GridSize).transl(Translate*7, Translate*1, 0))
DefRegion(23, Cuboid(GridSize, GridSize, GridSize).transl(Translate*7, Translate*3, 0))
DefRegion(24, Cuboid(GridSize, GridSize, GridSize).transl(Translate*7, Translate*5, 0))
DefRegion(25, Cuboid(GridSize, GridSize, GridSize).transl(Translate*7, Translate*7, 0))
DefRegion(26, Cuboid(GridSize, GridSize, GridSize).transl(Translate*7, Translate*9, 0))
DefRegion(27, Cuboid(GridSize, GridSize, GridSize).transl(Translate*7, Translate*11, 0))
DefRegion(28, Cuboid(GridSize, GridSize, GridSize).transl(Translate*7, Translate*13, 0))
DefRegion(29, Cuboid(GridSize, GridSize, GridSize).transl(Translate*9, Translate*1, 0))
DefRegion(30, Cuboid(GridSize, GridSize, GridSize).transl(Translate*9, Translate*3, 0))
DefRegion(31, Cuboid(GridSize, GridSize, GridSize).transl(Translate*9, Translate*5, 0))
DefRegion(32, Cuboid(GridSize, GridSize, GridSize).transl(Translate*9, Translate*7, 0))
DefRegion(33, Cuboid(GridSize, GridSize, GridSize).transl(Translate*9, Translate*9, 0))
DefRegion(34, Cuboid(GridSize, GridSize, GridSize).transl(Translate*9, Translate*11, 0))
DefRegion(35, Cuboid(GridSize, GridSize, GridSize).transl(Translate*9, Translate*13, 0))
DefRegion(36, Cuboid(GridSize, GridSize, GridSize).transl(Translate*11, Translate*1, 0))
DefRegion(37, Cuboid(GridSize, GridSize, GridSize).transl(Translate*11, Translate*3, 0))
DefRegion(38, Cuboid(GridSize, GridSize, GridSize).transl(Translate*11, Translate*5, 0))
DefRegion(39, Cuboid(GridSize, GridSize, GridSize).transl(Translate*11, Translate*7, 0))
DefRegion(40, Cuboid(GridSize, GridSize, GridSize).transl(Translate*11, Translate*9, 0))
DefRegion(41, Cuboid(GridSize, GridSize, GridSize).transl(Translate*11, Translate*11, 0))
DefRegion(42, Cuboid(GridSize, GridSize, GridSize).transl(Translate*11, Translate*13, 0))
DefRegion(43, Cuboid(GridSize, GridSize, GridSize).transl(Translate*13, Translate*1, 0))
DefRegion(44, Cuboid(GridSize, GridSize, GridSize).transl(Translate*13, Translate*3, 0))
DefRegion(45, Cuboid(GridSize, GridSize, GridSize).transl(Translate*13, Translate*5, 0))
DefRegion(46, Cuboid(GridSize, GridSize, GridSize).transl(Translate*13, Translate*7, 0))
DefRegion(47, Cuboid(GridSize, GridSize, GridSize).transl(Translate*13, Translate*9, 0))
DefRegion(48, Cuboid(GridSize, GridSize, GridSize).transl(Translate*13, Translate*11, 0))
DefRegion(49, Cuboid(GridSize, GridSize, GridSize).transl(Translate*13, Translate*13, 0))
DefRegion(50, Cuboid(GridSize, GridSize, GridSize).transl(-Translate*1, Translate*1, 0))
DefRegion(51, Cuboid(GridSize, GridSize, GridSize).transl(-Translate*1, Translate*3, 0))
DefRegion(52, Cuboid(GridSize, GridSize, GridSize).transl(-Translate*1, Translate*5, 0))
DefRegion(53, Cuboid(GridSize, GridSize, GridSize).transl(-Translate*1, Translate*7, 0))
DefRegion(54, Cuboid(GridSize, GridSize, GridSize).transl(-Translate*1, Translate*9, 0))
DefRegion(55, Cuboid(GridSize, GridSize, GridSize).transl(-Translate*1, Translate*11, 0))
DefRegion(56, Cuboid(GridSize, GridSize, GridSize).transl(-Translate*1, Translate*13, 0))
DefRegion(57, Cuboid(GridSize, GridSize, GridSize).transl(-Translate*3, Translate*1, 0))
DefRegion(58, Cuboid(GridSize, GridSize, GridSize).transl(-Translate*3, Translate*3, 0))
DefRegion(59, Cuboid(GridSize, GridSize, GridSize).transl(-Translate*3, Translate*5, 0))
DefRegion(60, Cuboid(GridSize, GridSize, GridSize).transl(-Translate*3, Translate*7, 0))
DefRegion(61, Cuboid(GridSize, GridSize, GridSize).transl(-Translate*3, Translate*9, 0))
DefRegion(62, Cuboid(GridSize, GridSize, GridSize).transl(-Translate*3, Translate*11, 0))
DefRegion(63, Cuboid(GridSize, GridSize, GridSize).transl(-Translate*3, Translate*13, 0))
DefRegion(64, Cuboid(GridSize, GridSize, GridSize).transl(-Translate*5, Translate*1, 0))
DefRegion(65, Cuboid(GridSize, GridSize, GridSize).transl(-Translate*5, Translate*3, 0))
DefRegion(66, Cuboid(GridSize, GridSize, GridSize).transl(-Translate*5, Translate*5, 0))
DefRegion(67, Cuboid(GridSize, GridSize, GridSize).transl(-Translate*5, Translate*7, 0))
DefRegion(68, Cuboid(GridSize, GridSize, GridSize).transl(-Translate*5, Translate*9, 0))
DefRegion(69, Cuboid(GridSize, GridSize, GridSize).transl(-Translate*5, Translate*11, 0))
DefRegion(70, Cuboid(GridSize, GridSize, GridSize).transl(-Translate*5, Translate*13, 0))
DefRegion(71, Cuboid(GridSize, GridSize, GridSize).transl(-Translate*7, Translate*1, 0))
DefRegion(72, Cuboid(GridSize, GridSize, GridSize).transl(-Translate*7, Translate*3, 0))
DefRegion(73, Cuboid(GridSize, GridSize, GridSize).transl(-Translate*7, Translate*5, 0))
DefRegion(74, Cuboid(GridSize, GridSize, GridSize).transl(-Translate*7, Translate*7, 0))
DefRegion(75, Cuboid(GridSize, GridSize, GridSize).transl(-Translate*7, Translate*9, 0))
DefRegion(76, Cuboid(GridSize, GridSize, GridSize).transl(-Translate*7, Translate*11, 0))
DefRegion(77, Cuboid(GridSize, GridSize, GridSize).transl(-Translate*7, Translate*13, 0))
DefRegion(78, Cuboid(GridSize, GridSize, GridSize).transl(-Translate*9, Translate*1, 0))
DefRegion(79, Cuboid(GridSize, GridSize, GridSize).transl(-Translate*9, Translate*3, 0))
DefRegion(80, Cuboid(GridSize, GridSize, GridSize).transl(-Translate*9, Translate*5, 0))
DefRegion(81, Cuboid(GridSize, GridSize, GridSize).transl(-Translate*9, Translate*7, 0))
DefRegion(82, Cuboid(GridSize, GridSize, GridSize).transl(-Translate*9, Translate*9, 0))
DefRegion(83, Cuboid(GridSize, GridSize, GridSize).transl(-Translate*9, Translate*11, 0))
DefRegion(84, Cuboid(GridSize, GridSize, GridSize).transl(-Translate*9, Translate*13, 0))
DefRegion(85, Cuboid(GridSize, GridSize, GridSize).transl(-Translate*11, Translate*1, 0))
DefRegion(86, Cuboid(GridSize, GridSize, GridSize).transl(-Translate*11, Translate*3, 0))
DefRegion(87, Cuboid(GridSize, GridSize, GridSize).transl(-Translate*11, Translate*5, 0))
DefRegion(88, Cuboid(GridSize, GridSize, GridSize).transl(-Translate*11, Translate*7, 0))
DefRegion(89, Cuboid(GridSize, GridSize, GridSize).transl(-Translate*11, Translate*9, 0))
DefRegion(90, Cuboid(GridSize, GridSize, GridSize).transl(-Translate*11, Translate*11, 0))
DefRegion(91, Cuboid(GridSize, GridSize, GridSize).transl(-Translate*11, Translate*13, 0))
DefRegion(92, Cuboid(GridSize, GridSize, GridSize).transl(-Translate*13, Translate*1, 0))
DefRegion(93, Cuboid(GridSize, GridSize, GridSize).transl(-Translate*13, Translate*3, 0))
DefRegion(94, Cuboid(GridSize, GridSize, GridSize).transl(-Translate*13, Translate*5, 0))
DefRegion(95, Cuboid(GridSize, GridSize, GridSize).transl(-Translate*13, Translate*7, 0))
DefRegion(96, Cuboid(GridSize, GridSize, GridSize).transl(-Translate*13, Translate*9, 0))
DefRegion(97, Cuboid(GridSize, GridSize, GridSize).transl(-Translate*13, Translate*11, 0))
DefRegion(98, Cuboid(GridSize, GridSize, GridSize).transl(-Translate*13, Translate*13, 0))
DefRegion(99, Cuboid(GridSize, GridSize, GridSize).transl(Translate*1, -Translate*1, 0))
DefRegion(100, Cuboid(GridSize, GridSize, GridSize).transl(Translate*1, -Translate*3, 0))
DefRegion(101, Cuboid(GridSize, GridSize, GridSize).transl(Translate*1, -Translate*5, 0))
DefRegion(102, Cuboid(GridSize, GridSize, GridSize).transl(Translate*1, -Translate*7, 0))
DefRegion(103, Cuboid(GridSize, GridSize, GridSize).transl(Translate*1, -Translate*9, 0))
DefRegion(104, Cuboid(GridSize, GridSize, GridSize).transl(Translate*1, -Translate*11, 0))
DefRegion(105, Cuboid(GridSize, GridSize, GridSize).transl(Translate*1, -Translate*13, 0))
DefRegion(106, Cuboid(GridSize, GridSize, GridSize).transl(Translate*3, -Translate*1, 0))
DefRegion(107, Cuboid(GridSize, GridSize, GridSize).transl(Translate*3, -Translate*3, 0))
DefRegion(108, Cuboid(GridSize, GridSize, GridSize).transl(Translate*3, -Translate*5, 0))
DefRegion(109, Cuboid(GridSize, GridSize, GridSize).transl(Translate*3, -Translate*7, 0))
DefRegion(110, Cuboid(GridSize, GridSize, GridSize).transl(Translate*3, -Translate*9, 0))
DefRegion(111, Cuboid(GridSize, GridSize, GridSize).transl(Translate*3, -Translate*11, 0))
DefRegion(112, Cuboid(GridSize, GridSize, GridSize).transl(Translate*3, -Translate*13, 0))
DefRegion(113, Cuboid(GridSize, GridSize, GridSize).transl(Translate*5, -Translate*1, 0))
DefRegion(114, Cuboid(GridSize, GridSize, GridSize).transl(Translate*5, -Translate*3, 0))
DefRegion(115, Cuboid(GridSize, GridSize, GridSize).transl(Translate*5, -Translate*5, 0))
DefRegion(116, Cuboid(GridSize, GridSize, GridSize).transl(Translate*5, -Translate*7, 0))
DefRegion(117, Cuboid(GridSize, GridSize, GridSize).transl(Translate*5, -Translate*9, 0))
DefRegion(118, Cuboid(GridSize, GridSize, GridSize).transl(Translate*5, -Translate*11, 0))
DefRegion(119, Cuboid(GridSize, GridSize, GridSize).transl(Translate*5, -Translate*13, 0))
DefRegion(120, Cuboid(GridSize, GridSize, GridSize).transl(Translate*7, -Translate*1, 0))
DefRegion(121, Cuboid(GridSize, GridSize, GridSize).transl(Translate*7, -Translate*3, 0))
DefRegion(122, Cuboid(GridSize, GridSize, GridSize).transl(Translate*7, -Translate*5, 0))
DefRegion(123, Cuboid(GridSize, GridSize, GridSize).transl(Translate*7, -Translate*7, 0))
DefRegion(124, Cuboid(GridSize, GridSize, GridSize).transl(Translate*7, -Translate*9, 0))
DefRegion(125, Cuboid(GridSize, GridSize, GridSize).transl(Translate*7, -Translate*11, 0))
DefRegion(126, Cuboid(GridSize, GridSize, GridSize).transl(Translate*7, -Translate*13, 0))
DefRegion(127, Cuboid(GridSize, GridSize, GridSize).transl(Translate*9, -Translate*1, 0))
DefRegion(128, Cuboid(GridSize, GridSize, GridSize).transl(Translate*9, -Translate*3, 0))
DefRegion(129, Cuboid(GridSize, GridSize, GridSize).transl(Translate*9, -Translate*5, 0))
DefRegion(130, Cuboid(GridSize, GridSize, GridSize).transl(Translate*9, -Translate*7, 0))
DefRegion(131, Cuboid(GridSize, GridSize, GridSize).transl(Translate*9, -Translate*9, 0))
DefRegion(132, Cuboid(GridSize, GridSize, GridSize).transl(Translate*9, -Translate*11, 0))
DefRegion(133, Cuboid(GridSize, GridSize, GridSize).transl(Translate*9, -Translate*13, 0))
DefRegion(134, Cuboid(GridSize, GridSize, GridSize).transl(Translate*11, -Translate*1, 0))
DefRegion(135, Cuboid(GridSize, GridSize, GridSize).transl(Translate*11, -Translate*3, 0))
DefRegion(136, Cuboid(GridSize, GridSize, GridSize).transl(Translate*11, -Translate*5, 0))
DefRegion(137, Cuboid(GridSize, GridSize, GridSize).transl(Translate*11, -Translate*7, 0))
DefRegion(138, Cuboid(GridSize, GridSize, GridSize).transl(Translate*11, -Translate*9, 0))
DefRegion(139, Cuboid(GridSize, GridSize, GridSize).transl(Translate*11, -Translate*11, 0))
DefRegion(140, Cuboid(GridSize, GridSize, GridSize).transl(Translate*11, -Translate*13, 0))
DefRegion(141, Cuboid(GridSize, GridSize, GridSize).transl(Translate*13, -Translate*1, 0))
DefRegion(142, Cuboid(GridSize, GridSize, GridSize).transl(Translate*13, -Translate*3, 0))
DefRegion(143, Cuboid(GridSize, GridSize, GridSize).transl(Translate*13, -Translate*5, 0))
DefRegion(144, Cuboid(GridSize, GridSize, GridSize).transl(Translate*13, -Translate*7, 0))
DefRegion(145, Cuboid(GridSize, GridSize, GridSize).transl(Translate*13, -Translate*9, 0))
DefRegion(146, Cuboid(GridSize, GridSize, GridSize).transl(Translate*13, -Translate*11, 0))
DefRegion(147, Cuboid(GridSize, GridSize, GridSize).transl(Translate*13, -Translate*13, 0))
DefRegion(148, Cuboid(GridSize, GridSize, GridSize).transl(-Translate*1, -Translate*1, 0))
DefRegion(149, Cuboid(GridSize, GridSize, GridSize).transl(-Translate*1, -Translate*3, 0))
DefRegion(150, Cuboid(GridSize, GridSize, GridSize).transl(-Translate*1, -Translate*5, 0))
DefRegion(151, Cuboid(GridSize, GridSize, GridSize).transl(-Translate*1, -Translate*7, 0))
DefRegion(152, Cuboid(GridSize, GridSize, GridSize).transl(-Translate*1, -Translate*9, 0))
DefRegion(153, Cuboid(GridSize, GridSize, GridSize).transl(-Translate*1, -Translate*11, 0))
DefRegion(154, Cuboid(GridSize, GridSize, GridSize).transl(-Translate*1, -Translate*13, 0))
DefRegion(155, Cuboid(GridSize, GridSize, GridSize).transl(-Translate*3, -Translate*1, 0))
DefRegion(156, Cuboid(GridSize, GridSize, GridSize).transl(-Translate*3, -Translate*3, 0))
DefRegion(157, Cuboid(GridSize, GridSize, GridSize).transl(-Translate*3, -Translate*5, 0))
DefRegion(158, Cuboid(GridSize, GridSize, GridSize).transl(-Translate*3, -Translate*7, 0))
DefRegion(159, Cuboid(GridSize, GridSize, GridSize).transl(-Translate*3, -Translate*9, 0))
DefRegion(160, Cuboid(GridSize, GridSize, GridSize).transl(-Translate*3, -Translate*11, 0))
DefRegion(161, Cuboid(GridSize, GridSize, GridSize).transl(-Translate*3, -Translate*13, 0))
DefRegion(162, Cuboid(GridSize, GridSize, GridSize).transl(-Translate*5, -Translate*1, 0))
DefRegion(163, Cuboid(GridSize, GridSize, GridSize).transl(-Translate*5, -Translate*3, 0))
DefRegion(164, Cuboid(GridSize, GridSize, GridSize).transl(-Translate*5, -Translate*5, 0))
DefRegion(165, Cuboid(GridSize, GridSize, GridSize).transl(-Translate*5, -Translate*7, 0))
DefRegion(166, Cuboid(GridSize, GridSize, GridSize).transl(-Translate*5, -Translate*9, 0))
DefRegion(167, Cuboid(GridSize, GridSize, GridSize).transl(-Translate*5, -Translate*11, 0))
DefRegion(168, Cuboid(GridSize, GridSize, GridSize).transl(-Translate*5, -Translate*13, 0))
DefRegion(169, Cuboid(GridSize, GridSize, GridSize).transl(-Translate*7, -Translate*1, 0))
DefRegion(170, Cuboid(GridSize, GridSize, GridSize).transl(-Translate*7, -Translate*3, 0))
DefRegion(171, Cuboid(GridSize, GridSize, GridSize).transl(-Translate*7, -Translate*5, 0))
DefRegion(172, Cuboid(GridSize, GridSize, GridSize).transl(-Translate*7, -Translate*7, 0))
DefRegion(173, Cuboid(GridSize, GridSize, GridSize).transl(-Translate*7, -Translate*9, 0))
DefRegion(174, Cuboid(GridSize, GridSize, GridSize).transl(-Translate*7, -Translate*11, 0))
DefRegion(175, Cuboid(GridSize, GridSize, GridSize).transl(-Translate*7, -Translate*13, 0))
DefRegion(176, Cuboid(GridSize, GridSize, GridSize).transl(-Translate*9, -Translate*1, 0))
DefRegion(177, Cuboid(GridSize, GridSize, GridSize).transl(-Translate*9, -Translate*3, 0))
DefRegion(178, Cuboid(GridSize, GridSize, GridSize).transl(-Translate*9, -Translate*5, 0))
DefRegion(179, Cuboid(GridSize, GridSize, GridSize).transl(-Translate*9, -Translate*7, 0))
DefRegion(180, Cuboid(GridSize, GridSize, GridSize).transl(-Translate*9, -Translate*9, 0))
DefRegion(181, Cuboid(GridSize, GridSize, GridSize).transl(-Translate*9, -Translate*11, 0))
DefRegion(182, Cuboid(GridSize, GridSize, GridSize).transl(-Translate*9, -Translate*13, 0))
DefRegion(183, Cuboid(GridSize, GridSize, GridSize).transl(-Translate*11, -Translate*1, 0))
DefRegion(184, Cuboid(GridSize, GridSize, GridSize).transl(-Translate*11, -Translate*3, 0))
DefRegion(185, Cuboid(GridSize, GridSize, GridSize).transl(-Translate*11, -Translate*5, 0))
DefRegion(186, Cuboid(GridSize, GridSize, GridSize).transl(-Translate*11, -Translate*7, 0))
DefRegion(187, Cuboid(GridSize, GridSize, GridSize).transl(-Translate*11, -Translate*9, 0))
DefRegion(188, Cuboid(GridSize, GridSize, GridSize).transl(-Translate*11, -Translate*11, 0))
DefRegion(189, Cuboid(GridSize, GridSize, GridSize).transl(-Translate*11, -Translate*13, 0))
DefRegion(190, Cuboid(GridSize, GridSize, GridSize).transl(-Translate*13, -Translate*1, 0))
DefRegion(191, Cuboid(GridSize, GridSize, GridSize).transl(-Translate*13, -Translate*3, 0))
DefRegion(192, Cuboid(GridSize, GridSize, GridSize).transl(-Translate*13, -Translate*5, 0))
DefRegion(193, Cuboid(GridSize, GridSize, GridSize).transl(-Translate*13, -Translate*7, 0))
DefRegion(194, Cuboid(GridSize, GridSize, GridSize).transl(-Translate*13, -Translate*9, 0))
DefRegion(195, Cuboid(GridSize, GridSize, GridSize).transl(-Translate*13, -Translate*11, 0))
DefRegion(196, Cuboid(GridSize, GridSize, GridSize).transl(-Translate*13, -Translate*13, 0))
Msat.SetRegion(0, 0)
m.SetRegion(0, uniform(0, 0, 0))
Aex.SetRegion(0, 0)
Kc1.SetRegion(0, 0)
m.SetRegion(1, uniform(0, 0, 0))
Msat.SetRegion(1, 0)
Aex.SetRegion(1, 0)
Kc1.SetRegion(1, 0)
Msat.SetRegion(2, Ms)
Aex.SetRegion(2, ExchangeE)
Ku1.SetRegion(2, 0)
alpha.SetRegion(2, Alph)
Msat.SetRegion(3, Ms)
Aex.SetRegion(3, ExchangeE)
Ku1.SetRegion(3, 0)
alpha.SetRegion(3, Alph)
Msat.SetRegion(4, Ms)
Aex.SetRegion(4, ExchangeE)
Ku1.SetRegion(4, 0)
alpha.SetRegion(4, Alph)
Msat.SetRegion(5, Ms)
Aex.SetRegion(5, ExchangeE)
Ku1.SetRegion(5, 0)
alpha.SetRegion(5, Alph)
Msat.SetRegion(6, Ms)
Aex.SetRegion(6, ExchangeE)
Ku1.SetRegion(6, 0)
alpha.SetRegion(6, Alph)
Msat.SetRegion(7, Ms)
Aex.SetRegion(7, ExchangeE)
Ku1.SetRegion(7, 0)
alpha.SetRegion(7, Alph)
m.SetRegion(8, uniform(0, 0, 0))
Msat.SetRegion(8, 0)
Aex.SetRegion(8, 0)
Kc1.SetRegion(8, 0)
Msat.SetRegion(9, Ms)
Aex.SetRegion(9, ExchangeE)
Ku1.SetRegion(9, 0)
alpha.SetRegion(9, Alph)
Msat.SetRegion(10, Ms)
Aex.SetRegion(10, ExchangeE)
Ku1.SetRegion(10, 0)
alpha.SetRegion(10, Alph)
Msat.SetRegion(11, Ms)
Aex.SetRegion(11, ExchangeE)
Ku1.SetRegion(11, 0)
alpha.SetRegion(11, Alph)
Msat.SetRegion(12, Ms)
Aex.SetRegion(12, ExchangeE)
Ku1.SetRegion(12, 0)
alpha.SetRegion(12, Alph)
Msat.SetRegion(13, Ms)
Aex.SetRegion(13, ExchangeE)
Ku1.SetRegion(13, 0)
alpha.SetRegion(13, Alph)
Msat.SetRegion(14, Ms)
Aex.SetRegion(14, ExchangeE)
Ku1.SetRegion(14, 0)
alpha.SetRegion(14, Alph)
m.SetRegion(15, uniform(0, 0, 0))
Msat.SetRegion(15, 0)
Aex.SetRegion(15, 0)
Kc1.SetRegion(15, 0)
Msat.SetRegion(16, Ms)
Aex.SetRegion(16, ExchangeE)
Ku1.SetRegion(16, 0)
alpha.SetRegion(16, Alph)
Msat.SetRegion(17, Ms)
Aex.SetRegion(17, ExchangeE)
Ku1.SetRegion(17, 0)
alpha.SetRegion(17, Alph)
Msat.SetRegion(18, Ms)
Aex.SetRegion(18, ExchangeE)
Ku1.SetRegion(18, 0)
alpha.SetRegion(18, Alph)
Msat.SetRegion(19, Ms)
Aex.SetRegion(19, ExchangeE)
Ku1.SetRegion(19, 0)
alpha.SetRegion(19, Alph)
Msat.SetRegion(20, Ms)
Aex.SetRegion(20, ExchangeE)
Ku1.SetRegion(20, 0)
alpha.SetRegion(20, Alph)
Msat.SetRegion(21, Ms)
Aex.SetRegion(21, ExchangeE)
Ku1.SetRegion(21, 0)
alpha.SetRegion(21, Alph)
m.SetRegion(22, uniform(0, 0, 0))
Msat.SetRegion(22, 0)
Aex.SetRegion(22, 0)
Kc1.SetRegion(22, 0)
Msat.SetRegion(23, Ms)
Aex.SetRegion(23, ExchangeE)
Ku1.SetRegion(23, 0)
alpha.SetRegion(23, Alph)
Msat.SetRegion(24, Ms)
Aex.SetRegion(24, ExchangeE)
Ku1.SetRegion(24, 0)
alpha.SetRegion(24, Alph)
Msat.SetRegion(25, Ms)
Aex.SetRegion(25, ExchangeE)
Ku1.SetRegion(25, 0)
alpha.SetRegion(25, Alph)
Msat.SetRegion(26, Ms)
Aex.SetRegion(26, ExchangeE)
Ku1.SetRegion(26, 0)
alpha.SetRegion(26, Alph)
Msat.SetRegion(27, Ms)
Aex.SetRegion(27, ExchangeE)
Ku1.SetRegion(27, 0)
alpha.SetRegion(27, Alph)
Msat.SetRegion(28, Ms)
Aex.SetRegion(28, ExchangeE)
Ku1.SetRegion(28, 0)
alpha.SetRegion(28, Alph)
m.SetRegion(29, uniform(0, 0, 0))
Msat.SetRegion(29, 0)
Aex.SetRegion(29, 0)
Kc1.SetRegion(29, 0)
Msat.SetRegion(30, Ms)
Aex.SetRegion(30, ExchangeE)
Ku1.SetRegion(30, 0)
alpha.SetRegion(30, Alph)
Msat.SetRegion(31, Ms)
Aex.SetRegion(31, ExchangeE)
Ku1.SetRegion(31, 0)
alpha.SetRegion(31, Alph)
Msat.SetRegion(32, Ms)
Aex.SetRegion(32, ExchangeE)
Ku1.SetRegion(32, 0)
alpha.SetRegion(32, Alph)
Msat.SetRegion(33, Ms)
Aex.SetRegion(33, ExchangeE)
Ku1.SetRegion(33, 0)
alpha.SetRegion(33, Alph)
Msat.SetRegion(34, Ms)
Aex.SetRegion(34, ExchangeE)
Ku1.SetRegion(34, 0)
alpha.SetRegion(34, Alph)
Msat.SetRegion(35, Ms)
Aex.SetRegion(35, ExchangeE)
Ku1.SetRegion(35, 0)
alpha.SetRegion(35, Alph)
m.SetRegion(36, uniform(0, 0, 0))
Msat.SetRegion(36, 0)
Aex.SetRegion(36, 0)
Kc1.SetRegion(36, 0)
Msat.SetRegion(37, Ms)
Aex.SetRegion(37, ExchangeE)
Ku1.SetRegion(37, 0)
alpha.SetRegion(37, Alph)
Msat.SetRegion(38, Ms)
Aex.SetRegion(38, ExchangeE)
Ku1.SetRegion(38, 0)
alpha.SetRegion(38, Alph)
Msat.SetRegion(39, Ms)
Aex.SetRegion(39, ExchangeE)
Ku1.SetRegion(39, 0)
alpha.SetRegion(39, Alph)
Msat.SetRegion(40, Ms)
Aex.SetRegion(40, ExchangeE)
Ku1.SetRegion(40, 0)
alpha.SetRegion(40, Alph)
Msat.SetRegion(41, Ms)
Aex.SetRegion(41, ExchangeE)
Ku1.SetRegion(41, 0)
alpha.SetRegion(41, Alph)
Msat.SetRegion(42, Ms)
Aex.SetRegion(42, ExchangeE)
Ku1.SetRegion(42, 0)
alpha.SetRegion(42, Alph)
m.SetRegion(43, uniform(0, 0, 0))
Msat.SetRegion(43, 0)
Aex.SetRegion(43, 0)
Kc1.SetRegion(43, 0)
Msat.SetRegion(44, Ms)
Aex.SetRegion(44, ExchangeE)
Ku1.SetRegion(44, 0)
alpha.SetRegion(44, Alph)
Msat.SetRegion(45, Ms)
Aex.SetRegion(45, ExchangeE)
Ku1.SetRegion(45, 0)
alpha.SetRegion(45, Alph)
Msat.SetRegion(46, Ms)
Aex.SetRegion(46, ExchangeE)
Ku1.SetRegion(46, 0)
alpha.SetRegion(46, Alph)
Msat.SetRegion(47, Ms)
Aex.SetRegion(47, ExchangeE)
Ku1.SetRegion(47, 0)
alpha.SetRegion(47, Alph)
Msat.SetRegion(48, Ms)
Aex.SetRegion(48, ExchangeE)
Ku1.SetRegion(48, 0)
alpha.SetRegion(48, Alph)
Msat.SetRegion(49, Ms)
Aex.SetRegion(49, ExchangeE)
Ku1.SetRegion(49, 0)
alpha.SetRegion(49, Alph)
m.SetRegion(50, uniform(0, 0, 0))
Msat.SetRegion(50, 0)
Aex.SetRegion(50, 0)
Kc1.SetRegion(50, 0)
Msat.SetRegion(51, Ms)
Aex.SetRegion(51, ExchangeE)
Ku1.SetRegion(51, 0)
alpha.SetRegion(51, Alph)
Msat.SetRegion(52, Ms)
Aex.SetRegion(52, ExchangeE)
Ku1.SetRegion(52, 0)
alpha.SetRegion(52, Alph)
Msat.SetRegion(53, Ms)
Aex.SetRegion(53, ExchangeE)
Ku1.SetRegion(53, 0)
alpha.SetRegion(53, Alph)
Msat.SetRegion(54, Ms)
Aex.SetRegion(54, ExchangeE)
Ku1.SetRegion(54, 0)
alpha.SetRegion(54, Alph)
Msat.SetRegion(55, Ms)
Aex.SetRegion(55, ExchangeE)
Ku1.SetRegion(55, 0)
alpha.SetRegion(55, Alph)
Msat.SetRegion(56, Ms)
Aex.SetRegion(56, ExchangeE)
Ku1.SetRegion(56, 0)
alpha.SetRegion(56, Alph)
m.SetRegion(57, uniform(0, 0, 0))
Msat.SetRegion(57, 0)
Aex.SetRegion(57, 0)
Kc1.SetRegion(57, 0)
Msat.SetRegion(58, Ms)
Aex.SetRegion(58, ExchangeE)
Ku1.SetRegion(58, 0)
alpha.SetRegion(58, Alph)
Msat.SetRegion(59, Ms)
Aex.SetRegion(59, ExchangeE)
Ku1.SetRegion(59, 0)
alpha.SetRegion(59, Alph)
Msat.SetRegion(60, Ms)
Aex.SetRegion(60, ExchangeE)
Ku1.SetRegion(60, 0)
alpha.SetRegion(60, Alph)
Msat.SetRegion(61, Ms)
Aex.SetRegion(61, ExchangeE)
Ku1.SetRegion(61, 0)
alpha.SetRegion(61, Alph)
Msat.SetRegion(62, Ms)
Aex.SetRegion(62, ExchangeE)
Ku1.SetRegion(62, 0)
alpha.SetRegion(62, Alph)
Msat.SetRegion(63, Ms)
Aex.SetRegion(63, ExchangeE)
Ku1.SetRegion(63, 0)
alpha.SetRegion(63, Alph)
m.SetRegion(64, uniform(0, 0, 0))
Msat.SetRegion(64, 0)
Aex.SetRegion(64, 0)
Kc1.SetRegion(64, 0)
Msat.SetRegion(65, Ms)
Aex.SetRegion(65, ExchangeE)
Ku1.SetRegion(65, 0)
alpha.SetRegion(65, Alph)
Msat.SetRegion(66, Ms)
Aex.SetRegion(66, ExchangeE)
Ku1.SetRegion(66, 0)
alpha.SetRegion(66, Alph)
Msat.SetRegion(67, Ms)
Aex.SetRegion(67, ExchangeE)
Ku1.SetRegion(67, 0)
alpha.SetRegion(67, Alph)
Msat.SetRegion(68, Ms)
Aex.SetRegion(68, ExchangeE)
Ku1.SetRegion(68, 0)
alpha.SetRegion(68, Alph)
Msat.SetRegion(69, Ms)
Aex.SetRegion(69, ExchangeE)
Ku1.SetRegion(69, 0)
alpha.SetRegion(69, Alph)
Msat.SetRegion(70, Ms)
Aex.SetRegion(70, ExchangeE)
Ku1.SetRegion(70, 0)
alpha.SetRegion(70, Alph)
m.SetRegion(71, uniform(0, 0, 0))
Msat.SetRegion(71, 0)
Aex.SetRegion(71, 0)
Kc1.SetRegion(71, 0)
Msat.SetRegion(72, Ms)
Aex.SetRegion(72, ExchangeE)
Ku1.SetRegion(72, 0)
alpha.SetRegion(72, Alph)
Msat.SetRegion(73, Ms)
Aex.SetRegion(73, ExchangeE)
Ku1.SetRegion(73, 0)
alpha.SetRegion(73, Alph)
Msat.SetRegion(74, Ms)
Aex.SetRegion(74, ExchangeE)
Ku1.SetRegion(74, 0)
alpha.SetRegion(74, Alph)
Msat.SetRegion(75, Ms)
Aex.SetRegion(75, ExchangeE)
Ku1.SetRegion(75, 0)
alpha.SetRegion(75, Alph)
Msat.SetRegion(76, Ms)
Aex.SetRegion(76, ExchangeE)
Ku1.SetRegion(76, 0)
alpha.SetRegion(76, Alph)
Msat.SetRegion(77, Ms)
Aex.SetRegion(77, ExchangeE)
Ku1.SetRegion(77, 0)
alpha.SetRegion(77, Alph)
m.SetRegion(78, uniform(0, 0, 0))
Msat.SetRegion(78, 0)
Aex.SetRegion(78, 0)
Kc1.SetRegion(78, 0)
Msat.SetRegion(79, Ms)
Aex.SetRegion(79, ExchangeE)
Ku1.SetRegion(79, 0)
alpha.SetRegion(79, Alph)
Msat.SetRegion(80, Ms)
Aex.SetRegion(80, ExchangeE)
Ku1.SetRegion(80, 0)
alpha.SetRegion(80, Alph)
Msat.SetRegion(81, Ms)
Aex.SetRegion(81, ExchangeE)
Ku1.SetRegion(81, 0)
alpha.SetRegion(81, Alph)
Msat.SetRegion(82, Ms)
Aex.SetRegion(82, ExchangeE)
Ku1.SetRegion(82, 0)
alpha.SetRegion(82, Alph)
Msat.SetRegion(83, Ms)
Aex.SetRegion(83, ExchangeE)
Ku1.SetRegion(83, 0)
alpha.SetRegion(83, Alph)
Msat.SetRegion(84, Ms)
Aex.SetRegion(84, ExchangeE)
Ku1.SetRegion(84, 0)
alpha.SetRegion(84, Alph)
m.SetRegion(85, uniform(0, 0, 0))
Msat.SetRegion(85, 0)
Aex.SetRegion(85, 0)
Kc1.SetRegion(85, 0)
Msat.SetRegion(86, Ms)
Aex.SetRegion(86, ExchangeE)
Ku1.SetRegion(86, 0)
alpha.SetRegion(86, Alph)
Msat.SetRegion(87, Ms)
Aex.SetRegion(87, ExchangeE)
Ku1.SetRegion(87, 0)
alpha.SetRegion(87, Alph)
Msat.SetRegion(88, Ms)
Aex.SetRegion(88, ExchangeE)
Ku1.SetRegion(88, 0)
alpha.SetRegion(88, Alph)
Msat.SetRegion(89, Ms)
Aex.SetRegion(89, ExchangeE)
Ku1.SetRegion(89, 0)
alpha.SetRegion(89, Alph)
Msat.SetRegion(90, Ms)
Aex.SetRegion(90, ExchangeE)
Ku1.SetRegion(90, 0)
alpha.SetRegion(90, Alph)
Msat.SetRegion(91, Ms)
Aex.SetRegion(91, ExchangeE)
Ku1.SetRegion(91, 0)
alpha.SetRegion(91, Alph)
m.SetRegion(92, uniform(0, 0, 0))
Msat.SetRegion(92, 0)
Aex.SetRegion(92, 0)
Kc1.SetRegion(92, 0)
Msat.SetRegion(93, Ms)
Aex.SetRegion(93, ExchangeE)
Ku1.SetRegion(93, 0)
alpha.SetRegion(93, Alph)
Msat.SetRegion(94, Ms)
Aex.SetRegion(94, ExchangeE)
Ku1.SetRegion(94, 0)
alpha.SetRegion(94, Alph)
Msat.SetRegion(95, Ms)
Aex.SetRegion(95, ExchangeE)
Ku1.SetRegion(95, 0)
alpha.SetRegion(95, Alph)
Msat.SetRegion(96, Ms)
Aex.SetRegion(96, ExchangeE)
Ku1.SetRegion(96, 0)
alpha.SetRegion(96, Alph)
Msat.SetRegion(97, Ms)
Aex.SetRegion(97, ExchangeE)
Ku1.SetRegion(97, 0)
alpha.SetRegion(97, Alph)
Msat.SetRegion(98, Ms)
Aex.SetRegion(98, ExchangeE)
Ku1.SetRegion(98, 0)
alpha.SetRegion(98, Alph)
m.SetRegion(99, uniform(0, 0, 0))
Msat.SetRegion(99, 0)
Aex.SetRegion(99, 0)
Kc1.SetRegion(99, 0)
Msat.SetRegion(100, Ms)
Aex.SetRegion(100, ExchangeE)
Ku1.SetRegion(100, 0)
alpha.SetRegion(100, Alph)
Msat.SetRegion(101, Ms)
Aex.SetRegion(101, ExchangeE)
Ku1.SetRegion(101, 0)
alpha.SetRegion(101, Alph)
Msat.SetRegion(102, Ms)
Aex.SetRegion(102, ExchangeE)
Ku1.SetRegion(102, 0)
alpha.SetRegion(102, Alph)
Msat.SetRegion(103, Ms)
Aex.SetRegion(103, ExchangeE)
Ku1.SetRegion(103, 0)
alpha.SetRegion(103, Alph)
Msat.SetRegion(104, Ms)
Aex.SetRegion(104, ExchangeE)
Ku1.SetRegion(104, 0)
alpha.SetRegion(104, Alph)
Msat.SetRegion(105, Ms)
Aex.SetRegion(105, ExchangeE)
Ku1.SetRegion(105, 0)
alpha.SetRegion(105, Alph)
m.SetRegion(106, uniform(0, 0, 0))
Msat.SetRegion(106, 0)
Aex.SetRegion(106, 0)
Kc1.SetRegion(106, 0)
Msat.SetRegion(107, Ms)
Aex.SetRegion(107, ExchangeE)
Ku1.SetRegion(107, 0)
alpha.SetRegion(107, Alph)
Msat.SetRegion(108, Ms)
Aex.SetRegion(108, ExchangeE)
Ku1.SetRegion(108, 0)
alpha.SetRegion(108, Alph)
Msat.SetRegion(109, Ms)
Aex.SetRegion(109, ExchangeE)
Ku1.SetRegion(109, 0)
alpha.SetRegion(109, Alph)
Msat.SetRegion(110, Ms)
Aex.SetRegion(110, ExchangeE)
Ku1.SetRegion(110, 0)
alpha.SetRegion(110, Alph)
Msat.SetRegion(111, Ms)
Aex.SetRegion(111, ExchangeE)
Ku1.SetRegion(111, 0)
alpha.SetRegion(111, Alph)
Msat.SetRegion(112, Ms)
Aex.SetRegion(112, ExchangeE)
Ku1.SetRegion(112, 0)
alpha.SetRegion(112, Alph)
m.SetRegion(113, uniform(0, 0, 0))
Msat.SetRegion(113, 0)
Aex.SetRegion(113, 0)
Kc1.SetRegion(113, 0)
Msat.SetRegion(114, Ms)
Aex.SetRegion(114, ExchangeE)
Ku1.SetRegion(114, 0)
alpha.SetRegion(114, Alph)
Msat.SetRegion(115, Ms)
Aex.SetRegion(115, ExchangeE)
Ku1.SetRegion(115, 0)
alpha.SetRegion(115, Alph)
Msat.SetRegion(116, Ms)
Aex.SetRegion(116, ExchangeE)
Ku1.SetRegion(116, 0)
alpha.SetRegion(116, Alph)
Msat.SetRegion(117, Ms)
Aex.SetRegion(117, ExchangeE)
Ku1.SetRegion(117, 0)
alpha.SetRegion(117, Alph)
Msat.SetRegion(118, Ms)
Aex.SetRegion(118, ExchangeE)
Ku1.SetRegion(118, 0)
alpha.SetRegion(118, Alph)
Msat.SetRegion(119, Ms)
Aex.SetRegion(119, ExchangeE)
Ku1.SetRegion(119, 0)
alpha.SetRegion(119, Alph)
m.SetRegion(120, uniform(0, 0, 0))
Msat.SetRegion(120, 0)
Aex.SetRegion(120, 0)
Kc1.SetRegion(120, 0)
Msat.SetRegion(121, Ms)
Aex.SetRegion(121, ExchangeE)
Ku1.SetRegion(121, 0)
alpha.SetRegion(121, Alph)
Msat.SetRegion(122, Ms)